
n_res = 6;
rcap = [32, 35, 614, 593, 604, 598];
rtype = [1, 1, 2, 2, 2, 2];
n_tasks = 100;
modes =  [{1, 2, 3}, {4, 5, 6}, {7, 8, 9}, {10, 11, 12}, {13, 14, 15}, {16, 17, 18}, {19, 20, 21}, {22, 23, 24}, {25, 26, 27}, {28, 29, 30}, {31, 32, 33}, {34, 35, 36}, {37, 38, 39}, {40, 41, 42}, {43, 44, 45}, {46, 47, 48}, {49, 50, 51}, {52, 53, 54}, {55, 56, 57}, {58, 59, 60}, {61, 62, 63}, {64, 65, 66}, {67, 68, 69}, {70, 71, 72}, {73, 74, 75}, {76, 77, 78}, {79, 80, 81}, {82, 83, 84}, {85, 86, 87}, {88, 89, 90}, {91, 92, 93}, {94, 95, 96}, {97, 98, 99}, {100, 101, 102}, {103, 104, 105}, {106, 107, 108}, {109, 110, 111}, {112, 113, 114}, {115, 116, 117}, {118, 119, 120}, {121, 122, 123}, {124, 125, 126}, {127, 128, 129}, {130, 131, 132}, {133, 134, 135}, {136, 137, 138}, {139, 140, 141}, {142, 143, 144}, {145, 146, 147}, {148, 149, 150}, {151, 152, 153}, {154, 155, 156}, {157, 158, 159}, {160, 161, 162}, {163, 164, 165}, {166, 167, 168}, {169, 170, 171}, {172, 173, 174}, {175, 176, 177}, {178, 179, 180}, {181, 182, 183}, {184, 185, 186}, {187, 188, 189}, {190, 191, 192}, {193, 194, 195}, {196, 197, 198}, {199, 200, 201}, {202, 203, 204}, {205, 206, 207}, {208, 209, 210}, {211, 212, 213}, {214, 215, 216}, {217, 218, 219}, {220, 221, 222}, {223, 224, 225}, {226, 227, 228}, {229, 230, 231}, {232, 233, 234}, {235, 236, 237}, {238, 239, 240}, {241, 242, 243}, {244, 245, 246}, {247, 248, 249}, {250, 251, 252}, {253, 254, 255}, {256, 257, 258}, {259, 260, 261}, {262, 263, 264}, {265, 266, 267}, {268, 269, 270}, {271, 272, 273}, {274, 275, 276}, {277, 278, 279}, {280, 281, 282}, {283, 284, 285}, {286, 287, 288}, {289, 290, 291}, {292, 293, 294}, {295, 296, 297}, {298, 299, 300}];
succ =  [{46, 32, 29, 20, 17, 15, 12, 4}, {54, 53, 47, 46, 41, 39, 33, 32, 27, 25, 18, 15, 13}, {50, 46, 42, 40, 39, 35, 33, 31, 29, 28, 26, 25, 24, 23, 21}, {51, 49, 41, 38, 35, 31, 28, 24, 21, 19, 18}, {54, 51, 50, 46, 42, 32, 31, 29, 20, 15}, {65, 54, 51, 50, 49, 46, 44, 42, 40, 37, 36, 35, 34, 31, 30, 28}, {51, 50, 46, 45, 33, 32, 24, 23, 15}, {65, 51, 50, 49, 42, 41, 38, 37, 36, 35, 34, 31, 28, 20}, {54, 52, 51, 50, 48, 45, 40, 39, 33, 32, 31, 25, 23}, {60, 56, 53, 50, 49, 48, 45, 44, 41, 40, 39, 35, 33, 25}, {55, 54, 50, 49, 47, 45, 40, 35, 24, 20}, {56, 53, 52, 50, 49, 48, 47, 45, 44, 40, 25}, {68, 65, 60, 56, 52, 51, 48, 45, 44, 43, 42, 37, 36}, {56, 51, 50, 48, 44, 41, 39, 36, 35, 32}, {68, 60, 57, 40, 36, 28, 26}, {60, 56, 55, 54, 53, 52, 48, 44, 43, 39, 33}, {68, 67, 65, 54, 49, 44, 42, 41, 31}, {85, 65, 63, 52, 50, 44, 42, 36, 34}, {57, 53, 48, 44, 39, 37, 33}, {78, 68, 67, 64, 62, 61, 58, 57, 56, 53, 48, 44, 43}, {85, 76, 68, 67, 65, 64, 63, 62, 58, 57, 47, 44}, {67, 64, 63, 62, 61, 60, 54, 48, 44, 39}, {75, 67, 62, 44, 43, 37}, {78, 68, 67, 64, 62, 61, 59, 56, 53, 48, 43}, {100, 78, 68, 66, 58, 57, 43, 36}, {67, 65, 58, 55, 49, 44, 43}, {100, 77, 75, 70, 68, 67, 66, 63, 60, 37}, {100, 72, 67, 61, 59, 56, 52, 48, 43}, {100, 85, 77, 76, 72, 68, 67, 64, 62, 47, 45}, {77, 75, 68, 62, 61, 58, 55, 53, 45}, {100, 85, 78, 77, 73, 72, 64, 63, 59, 57, 47}, {100, 82, 70, 67, 62, 60, 37}, {84, 77, 72, 68, 67, 66, 65, 64, 63, 62, 61, 58}, {100, 76, 75, 72, 71, 69, 68, 67, 66, 64, 59, 58}, {83, 75, 67, 66, 43}, {82, 74, 73, 70, 67, 62, 61, 55}, {99, 84, 78, 74, 71, 61, 58, 55}, {94, 84, 76, 69, 63, 58, 53}, {100, 99, 98, 85, 83, 81, 76, 75, 74, 73, 72, 71, 69, 68}, {100, 99, 98, 84, 83, 77, 73, 71, 69, 66, 59}, {100, 99, 85, 76, 74, 73, 72, 70, 62, 61}, {84, 72, 71, 61, 58, 57}, {99, 98, 97, 85, 84, 79, 76, 74, 73, 71, 70, 63}, {100, 84, 80, 77, 72, 69, 66, 59}, {98, 84, 83, 74, 73, 69, 59}, {99, 98, 96, 85, 83, 75, 73, 72, 62}, {96, 84, 75, 71, 61, 60}, {98, 97, 96, 95, 92, 85, 83, 82, 81, 80, 76, 75, 74, 71}, {99, 97, 92, 83, 81, 79, 78, 76, 75, 74, 73, 71}, {100, 98, 95, 92, 91, 84, 83, 81, 79, 75, 74, 68}, {99, 98, 97, 96, 91, 79, 75, 74, 73, 72, 71}, {97, 92, 90, 82, 80, 79, 78, 77, 70, 66}, {100, 99, 98, 91, 83, 82, 80, 79, 72, 66}, {98, 95, 94, 91, 90, 75, 74, 72, 70, 69}, {98, 97, 96, 95, 80, 76, 72, 64}, {97, 92, 91, 90, 89, 82, 80, 79, 66}, {95, 94, 92, 80, 79, 75, 74, 70}, {98, 93, 92, 91, 87, 86, 83, 81, 73}, {94, 93, 92, 91, 90, 82, 79, 70}, {99, 98, 95, 94, 89, 86, 83, 80, 79}, {98, 93, 92, 91, 90, 86, 69}, {97, 93, 92, 91, 89, 79, 71}, {95, 92, 91, 89, 88, 87, 82}, {94, 93, 90, 89, 88, 87, 86}, {97, 95, 92, 90, 87, 80}, {96, 95, 88, 87, 74}, {99, 97, 94, 91, 89, 88}, {96, 94, 88, 87, 82}, {97, 88, 79}, {96, 88, 81}, {94, 90, 86}, {92, 89, 87}, {95, 80}, {93, 86}, {89, 88}, {91, 87}, {94, 91}, {87, 86}, {87}, {88}, {89}, {86}, {90}, {86}, {86}, {}, {}, {}, {}, {}, {}, {}, {}, {}, {}, {}, {}, {}, {}, {}];
n_opt = 300;
dur = [5, 9, 10, 3, 4, 7, 1, 8, 10, 2, 7, 9, 6, 9, 10, 1, 2, 7, 3, 4, 9, 3, 5, 10, 1, 2, 9, 3, 7, 9, 3, 4, 5, 1, 5, 9, 1, 7, 10, 4, 5, 8, 3, 7, 8, 2, 5, 9, 2, 7, 9, 5, 6, 10, 1, 3, 6, 6, 8, 9, 2, 3, 6, 4, 9, 10, 2, 3, 10, 2, 3, 7, 4, 5, 9, 2, 7, 10, 2, 3, 8, 3, 7, 10, 2, 3, 9, 3, 4, 9, 2, 5, 10, 3, 7, 10, 2, 5, 6, 1, 7, 10, 6, 7, 9, 1, 5, 9, 2, 4, 9, 2, 5, 8, 5, 7, 9, 2, 5, 9, 4, 6, 9, 3, 5, 10, 4, 5, 6, 3, 4, 6, 5, 9, 10, 2, 3, 7, 3, 4, 9, 5, 6, 7, 2, 3, 5, 1, 3, 5, 5, 6, 7, 7, 8, 10, 3, 6, 10, 6, 7, 8, 2, 9, 10, 1, 8, 9, 4, 7, 10, 1, 3, 8, 3, 5, 7, 8, 9, 10, 3, 6, 7, 6, 7, 8, 6, 8, 9, 2, 4, 5, 4, 9, 10, 2, 4, 9, 2, 9, 10, 2, 5, 7, 3, 8, 10, 3, 7, 9, 5, 7, 8, 4, 9, 10, 2, 6, 8, 1, 6, 8, 1, 2, 3, 2, 8, 10, 1, 2, 4, 5, 6, 7, 3, 8, 10, 5, 7, 10, 2, 4, 8, 2, 3, 6, 4, 5, 6, 7, 8, 9, 2, 4, 6, 3, 4, 5, 1, 2, 3, 5, 7, 8, 3, 5, 7, 1, 2, 8, 1, 6, 10, 2, 3, 10, 3, 6, 8, 5, 7, 10, 1, 7, 10, 7, 8, 9, 3, 4, 8, 5, 7, 10, 4, 6, 7, 5, 6, 8];
rreq = [|7, 7, 7, 8, 5, 4, 10, 8, 6, 8, 7, 6, 8, 4, 3, 7, 7, 7, 9, 9, 8, 8, 6, 4, 6, 3, 3, 6, 5, 4, 8, 6, 5, 6, 3, 2, 6, 5, 2, 8, 7, 7, 2, 2, 2, 6, 5, 1, 7, 5, 3, 8, 8, 7, 8, 6, 6, 7, 7, 5, 8, 5, 3, 9, 6, 4, 6, 6, 6, 5, 4, 3, 8, 7, 6, 6, 4, 2, 9, 4, 3, 6, 6, 4, 5, 2, 2, 5, 2, 1, 10, 9, 8, 6, 3, 2, 6, 5, 3, 6, 3, 1, 7, 3, 3, 4, 3, 3, 3, 3, 3, 3, 3, 3, 7, 6, 6, 4, 3, 3, 7, 7, 4, 1, 1, 1, 10, 6, 1, 6, 6, 6, 4, 3, 1, 10, 7, 6, 6, 4, 4, 6, 5, 3, 6, 5, 5, 9, 6, 5, 2, 1, 1, 6, 5, 5, 9, 6, 5, 3, 2, 2, 5, 5, 4, 8, 6, 5, 2, 1, 1, 4, 3, 3, 9, 7, 5, 8, 6, 5, 7, 6, 5, 9, 7, 4, 6, 5, 4, 6, 6, 5, 7, 7, 5, 4, 4, 4, 9, 5, 3, 8, 6, 6, 6, 5, 5, 7, 7, 7, 10, 8, 4, 5, 4, 4, 4, 3, 3, 4, 4, 4, 6, 6, 6, 10, 7, 7, 2, 1, 1, 7, 7, 3, 8, 6, 5, 5, 2, 2, 6, 3, 3, 8, 4, 3, 6, 5, 5, 3, 2, 2, 7, 6, 5, 6, 6, 4, 10, 9, 9, 3, 1, 1, 5, 4, 4, 3, 2, 2, 8, 7, 7, 5, 4, 3, 4, 4, 4, 9, 9, 9, 7, 6, 6, 7, 6, 5, 10, 8, 7, 5, 3, 3, 10, 5, 1, 5, 4, 4
 |4, 4, 3, 5, 4, 4, 6, 5, 5, 8, 7, 6, 10, 5, 3, 9, 7, 7, 2, 2, 2, 7, 6, 4, 5, 4, 2, 3, 2, 2, 4, 4, 4, 6, 6, 6, 9, 9, 8, 8, 8, 5, 7, 4, 3, 7, 7, 6, 9, 8, 6, 5, 4, 4, 10, 4, 4, 3, 1, 1, 3, 3, 3, 6, 5, 4, 9, 8, 6, 8, 6, 6, 9, 6, 3, 7, 5, 5, 7, 6, 4, 6, 5, 5, 3, 2, 2, 4, 2, 2, 3, 2, 1, 6, 6, 5, 4, 4, 4, 7, 6, 3, 7, 6, 4, 9, 8, 6, 6, 5, 3, 8, 7, 7, 6, 5, 3, 6, 5, 3, 10, 8, 8, 5, 5, 5, 8, 4, 4, 10, 9, 9, 6, 5, 3, 7, 5, 1, 6, 6, 6, 7, 6, 5, 1, 1, 1, 8, 6, 2, 2, 2, 2, 4, 3, 1, 8, 7, 6, 6, 6, 3, 6, 6, 5, 8, 5, 4, 7, 5, 3, 2, 2, 2, 7, 7, 7, 10, 8, 7, 9, 9, 8, 7, 6, 6, 7, 6, 4, 8, 7, 7, 8, 8, 8, 5, 5, 3, 5, 3, 3, 4, 3, 1, 4, 4, 3, 7, 5, 5, 7, 6, 4, 3, 3, 3, 10, 9, 7, 8, 7, 7, 5, 5, 3, 8, 5, 2, 7, 4, 1, 2, 2, 1, 7, 5, 4, 7, 3, 3, 9, 8, 6, 7, 6, 6, 8, 5, 3, 9, 8, 7, 7, 5, 3, 7, 5, 5, 2, 2, 2, 8, 8, 8, 9, 5, 4, 3, 3, 2, 7, 7, 6, 8, 8, 8, 5, 3, 2, 2, 1, 1, 8, 3, 3, 9, 7, 6, 8, 6, 2, 7, 6, 6, 4, 3, 3, 7, 7, 5
 |8, 4, 4, 8, 6, 6, 9, 9, 9, 9, 7, 7, 8, 5, 4, 3, 3, 2, 4, 4, 3, 6, 4, 1, 8, 6, 3, 6, 6, 5, 7, 6, 5, 4, 3, 3, 7, 6, 4, 9, 7, 6, 6, 5, 4, 10, 10, 10, 8, 7, 6, 7, 6, 6, 10, 9, 9, 8, 7, 4, 5, 3, 2, 8, 5, 5, 6, 6, 6, 5, 5, 5, 3, 3, 2, 6, 5, 3, 9, 7, 7, 4, 3, 1, 9, 5, 2, 8, 7, 6, 6, 4, 2, 4, 3, 3, 7, 6, 6, 9, 7, 6, 5, 4, 2, 7, 3, 3, 10, 8, 7, 8, 5, 3, 8, 8, 8, 6, 4, 1, 10, 8, 7, 10, 10, 10, 6, 5, 5, 6, 5, 4, 7, 6, 5, 3, 2, 2, 10, 7, 5, 10, 7, 1, 5, 4, 3, 4, 4, 4, 7, 6, 5, 8, 6, 6, 8, 7, 7, 6, 6, 5, 6, 6, 6, 9, 9, 8, 5, 4, 2, 7, 5, 5, 7, 5, 3, 7, 6, 2, 8, 3, 2, 10, 10, 10, 5, 5, 2, 7, 7, 7, 3, 2, 2, 3, 3, 3, 9, 5, 4, 6, 5, 5, 4, 4, 4, 5, 5, 5, 8, 7, 3, 8, 4, 2, 9, 9, 9, 8, 5, 3, 7, 6, 6, 6, 5, 5, 6, 5, 5, 9, 9, 7, 7, 5, 5, 6, 5, 3, 1, 1, 1, 4, 2, 2, 8, 6, 6, 10, 6, 5, 7, 5, 3, 8, 6, 6, 3, 3, 3, 8, 6, 4, 7, 6, 4, 9, 9, 8, 4, 3, 3, 8, 3, 2, 10, 7, 5, 5, 5, 5, 2, 2, 2, 7, 7, 7, 3, 3, 2, 4, 4, 2, 5, 5, 3, 5, 3, 2
 |2, 2, 2, 8, 5, 5, 6, 5, 5, 8, 6, 4, 9, 8, 8, 10, 7, 5, 4, 3, 2, 6, 4, 2, 8, 6, 4, 3, 1, 1, 2, 1, 1, 6, 6, 6, 7, 7, 7, 9, 8, 7, 9, 8, 7, 8, 7, 7, 8, 7, 7, 9, 4, 3, 9, 8, 5, 8, 5, 4, 6, 4, 3, 10, 7, 6, 5, 3, 2, 5, 4, 2, 9, 9, 9, 8, 6, 5, 5, 4, 1, 10, 5, 3, 4, 4, 4, 7, 7, 5, 8, 8, 8, 8, 5, 4, 2, 1, 1, 7, 7, 5, 5, 4, 4, 6, 3, 3, 2, 1, 1, 2, 1, 1, 6, 4, 4, 8, 8, 7, 8, 8, 4, 7, 3, 3, 5, 4, 2, 1, 1, 1, 9, 9, 9, 7, 7, 4, 7, 5, 5, 4, 4, 4, 10, 9, 9, 7, 7, 6, 8, 6, 6, 6, 5, 1, 6, 6, 5, 9, 8, 8, 8, 8, 8, 5, 3, 3, 7, 6, 5, 6, 5, 4, 9, 4, 4, 9, 5, 4, 3, 3, 3, 7, 7, 7, 10, 6, 5, 5, 5, 5, 4, 4, 4, 7, 5, 5, 6, 4, 2, 5, 2, 1, 8, 6, 4, 6, 6, 5, 8, 5, 4, 5, 4, 3, 4, 4, 4, 7, 6, 2, 6, 4, 1, 6, 4, 2, 7, 5, 3, 2, 1, 1, 8, 7, 7, 6, 5, 4, 10, 7, 6, 7, 7, 7, 8, 8, 8, 7, 4, 4, 7, 5, 1, 9, 6, 4, 4, 3, 3, 8, 5, 5, 9, 9, 9, 5, 2, 2, 8, 6, 6, 5, 4, 4, 3, 2, 2, 7, 5, 4, 1, 1, 1, 10, 7, 5, 1, 1, 1, 6, 5, 4, 9, 6, 5, 7, 5, 4
 |6, 5, 5, 7, 6, 5, 3, 1, 1, 3, 2, 2, 5, 4, 4, 10, 7, 6, 8, 7, 6, 10, 6, 4, 4, 2, 1, 5, 3, 2, 2, 1, 1, 9, 7, 6, 4, 3, 2, 7, 7, 7, 3, 3, 1, 6, 4, 3, 5, 4, 4, 8, 7, 7, 6, 4, 3, 4, 3, 1, 6, 6, 6, 3, 1, 1, 9, 9, 8, 10, 8, 8, 3, 3, 3, 7, 5, 3, 5, 4, 3, 5, 3, 3, 5, 4, 4, 7, 4, 4, 5, 4, 2, 7, 5, 2, 5, 4, 4, 6, 5, 4, 8, 7, 5, 9, 9, 8, 9, 3, 1, 8, 3, 3, 3, 3, 2, 8, 8, 7, 3, 3, 3, 6, 5, 5, 3, 3, 3, 7, 6, 3, 6, 6, 3, 8, 8, 8, 7, 6, 6, 9, 6, 5, 4, 3, 3, 10, 7, 7, 7, 5, 3, 5, 3, 3, 10, 9, 9, 8, 8, 8, 9, 7, 6, 9, 6, 5, 9, 9, 8, 4, 4, 4, 9, 5, 3, 9, 7, 6, 4, 3, 3, 8, 7, 4, 7, 3, 1, 7, 6, 6, 6, 4, 3, 7, 6, 5, 8, 7, 7, 6, 5, 4, 7, 3, 2, 10, 7, 4, 8, 7, 7, 6, 4, 3, 8, 7, 2, 9, 9, 9, 6, 6, 4, 4, 4, 3, 3, 2, 2, 7, 5, 4, 6, 4, 3, 5, 3, 3, 6, 4, 3, 6, 6, 4, 10, 9, 8, 8, 7, 7, 8, 5, 3, 6, 6, 5, 9, 7, 5, 5, 4, 4, 5, 5, 5, 9, 9, 9, 2, 2, 2, 7, 7, 7, 9, 8, 8, 9, 7, 6, 7, 7, 7, 10, 8, 8, 7, 7, 6, 6, 4, 4, 4, 4, 4, 8, 6, 5
 |8, 8, 8, 1, 1, 1, 9, 9, 8, 9, 7, 6, 4, 3, 1, 9, 4, 4, 9, 7, 4, 3, 2, 2, 10, 9, 9, 6, 5, 5, 8, 6, 3, 6, 6, 6, 5, 4, 4, 4, 3, 2, 9, 7, 7, 6, 4, 4, 7, 6, 4, 10, 8, 6, 9, 6, 4, 8, 5, 3, 9, 4, 3, 9, 7, 7, 7, 6, 6, 7, 7, 5, 3, 3, 3, 8, 7, 7, 5, 5, 5, 8, 7, 6, 8, 5, 5, 9, 9, 8, 9, 5, 4, 3, 3, 3, 6, 4, 3, 6, 6, 6, 5, 3, 3, 8, 8, 8, 7, 7, 3, 4, 3, 2, 5, 4, 4, 7, 5, 4, 6, 5, 2, 7, 6, 2, 9, 8, 7, 3, 1, 1, 4, 3, 3, 7, 3, 2, 9, 7, 5, 8, 4, 1, 5, 3, 1, 9, 8, 6, 6, 5, 3, 4, 4, 3, 10, 6, 6, 8, 5, 2, 6, 6, 6, 7, 6, 6, 10, 6, 5, 10, 10, 10, 6, 3, 3, 4, 2, 2, 9, 7, 7, 4, 3, 2, 7, 7, 6, 3, 2, 2, 9, 4, 3, 4, 4, 3, 3, 3, 3, 4, 2, 2, 7, 7, 3, 9, 9, 9, 7, 5, 2, 7, 6, 5, 6, 6, 6, 4, 2, 2, 5, 4, 4, 3, 3, 3, 7, 6, 5, 7, 6, 5, 4, 4, 3, 9, 7, 7, 7, 6, 5, 8, 7, 6, 9, 7, 7, 8, 5, 2, 4, 3, 3, 8, 6, 4, 7, 4, 4, 1, 1, 1, 9, 8, 8, 9, 4, 2, 5, 5, 5, 7, 7, 7, 7, 4, 3, 5, 3, 1, 3, 2, 1, 5, 4, 4, 7, 4, 3, 7, 7, 7, 4, 2, 2, 7, 6, 4|];